
  32    4
  10   10   10   10

   0   0   0   0   0   3 2 3 31 
   6   1   1   0   2   2 30 4 
   4   7   0   1   3   3 30 12 5 
   5   4   3   6   0   2 12 5 
   8   3   5   0  10   1 6 
   4   3   0   5   1   3 29 28 7 
   3   6   3   0   4   1 8 
  10   6   4   0   4   2 27 9 
   8   0   5   4   8   2 26 10 
   8   2   1   7   0   2 25 11 
   9   2   4   4   0   1 13 
  10   2   6   2   0   3 24 17 15 
   1   0   5   3   2   2 24 14 
   1   3   1   5   0   1 15 
   4   0   5   2   5   3 22 18 16 
   9   3   0   2   2   3 23 21 19 
   8   4   3   0   5   3 22 20 18 
   1   3   3   0   7   1 21 
   8   7   0   5   2   1 20 
   2   7   4   6   0   1 32
   4   0   5   3   5   1 32
   9   3   0   4   2   1 32
   7   4   5   0   2   1 32
   9   0   8   9   3   1 32
   9   3   4   2   0   1 32
   8   3   3   0   7   1 32
   2   0   6   4   2   1 32
   9   6   0   6   5   1 32
   1   2   0   3   3   1 32
   3   5   0   3   4   1 32
   9   7   0   2   4   1 32
   0   0   0   0   0   0 
